(set-option :auto-config false)
(set-option :model true)
(set-option :model.partial false)

(set-option :smt.mbqi false)

(define-sort Str () Int)
(declare-fun strLen (Str) Int)
(declare-fun subString (Str Int Int) Str)
(declare-fun concatString (Str Str) Str)
(define-sort Elt () Int)
(define-sort LSet () (Array Elt Bool))
(define-fun smt_set_emp () LSet ((as const LSet) false))
(define-fun smt_set_mem ((x Elt) (s LSet)) Bool (select s x))
(define-fun smt_set_add ((s LSet) (x Elt)) LSet (store s x true))
(define-fun smt_set_cup ((s1 LSet) (s2 LSet)) LSet ((_ map or) s1 s2))
(define-fun smt_set_cap ((s1 LSet) (s2 LSet)) LSet ((_ map and) s1 s2))
(define-fun smt_set_com ((s LSet)) LSet ((_ map not) s))
(define-fun smt_set_dif ((s1 LSet) (s2 LSet)) LSet (smt_set_cap s1 (smt_set_com s2)))
(define-fun smt_set_sub ((s1 LSet) (s2 LSet)) Bool (= smt_set_emp (smt_set_dif s1 s2)))
(define-sort Map () (Array Elt Elt))
(define-fun smt_map_sel ((m Map) (k Elt)) Elt (select m k))
(define-fun smt_map_sto ((m Map) (k Elt) (v Elt)) Map (store m k v))
(define-fun smt_map_cup ((m1 Map) (m2 Map)) Map ((_ map (+ (Elt Elt) Elt)) m1 m2))
(define-fun smt_map_def ((v Elt)) Map ((as const (Map)) v))
(define-fun bool_to_int ((b Bool)) Int (ite b 1 0))
(define-fun Z3_OP_MUL ((x Int) (y Int)) Int (* x y))
(define-fun Z3_OP_DIV ((x Int) (y Int)) Int (div x y))
(declare-datatypes ((Liquid.ProofCombinators.QED 0)) ((par () (Liquid.ProofCombinators.QED Liquid.ProofCombinators.Admit))))
(declare-fun GHC.Base.id () Int)
(declare-fun cast_as_int () Int)
(declare-fun GHC.List.init () Int)
(declare-fun addrLen () Int)
(declare-fun papp5 () Int)
(declare-fun GHC.List.iterate () Int)
(declare-fun x_Tuple21 () Int)
(declare-fun Liquid.ProofCombinators.axiomExt () Int)
(declare-fun GHC.Classes.$61$$61$ () Int)
(declare-fun GHC.Types.C$35$ () Int)
(declare-fun GHC.List.drop () Int)
(declare-fun lq_tmp$36$x$35$$35$426 () Int)
(declare-fun is$36$GHC.Types.$91$$93$ () Int)
(declare-fun Data.Foldable.length () Int)
(declare-fun x_Tuple33 () Int)
(declare-fun is$36$GHC.Tuple.$40$$44$$41$ () Int)
(declare-fun GHC.Types.LT () Int)
(declare-fun GHC.List.replicate () Int)
(declare-fun GHC.List.zipWith () Int)
(declare-fun GHC.Classes.$62$$61$ () Int)
(declare-fun GHC.Num.fromInteger () Int)
(declare-fun papp3 () Int)
(declare-fun GHC.List.span () Int)
(declare-fun lqdc$35$$35$$36$select$35$$35$GHC.Tuple.$40$$44$$44$$41$$35$$35$1 () Int)
(declare-fun GHC.Classes.$62$ () Int)
(declare-fun GHC.Types.False () Bool)
(declare-fun GHC.List.scanr1 () Int)
(declare-fun lqdc$35$$35$$36$select$35$$35$GHC.Types.$58$$35$$35$1 () Int)
(declare-fun GHC.Types.$58$ () Int)
(declare-fun GHC.List.scanl () Int)
(declare-fun GHC.Tuple.$40$$44$$44$$41$ () Int)
(declare-fun papp4 () Int)
(declare-fun GHC.Types.Module () Int)
(declare-fun GHC.List.zip () Int)
(declare-fun GHC.Tuple.$40$$41$ () Int)
(declare-fun GHC.Types.I$35$ () Int)
(declare-fun Liquid.ProofCombinators.$42$$42$$42$ () Int)
(declare-fun GHC.List.dropWhile () Int)
(declare-fun GHC.Real.C$58$Fractional () Int)
(declare-fun autolen () Int)
(declare-fun lq_tmp$36$x$35$$35$421 () Int)
(declare-fun GHC.Integer.Type.$36$WJn$35$ () Int)
(declare-fun GHC.Real.$94$ () Int)
(declare-fun head () Int)
(declare-fun is$36$GHC.Tuple.$40$$44$$44$$41$ () Int)
(declare-fun GHC.Integer.Type.Jn$35$ () Int)
(declare-fun GHC.Classes.compare () Int)
(declare-fun Liquid.ProofCombinators.$61$$60$$61$ () Int)
(declare-fun is$36$GHC.Types.$58$ () Int)
(declare-fun papp2 () Int)
(declare-fun GHC.Stack.Types.EmptyCallStack () Int)
(declare-fun Liquid.ProofCombinators.$61$$61$$33$ () Int)
(declare-fun GHC.List.reverse () Int)
(declare-fun GHC.Integer.Type.$36$WJp$35$ () Int)
(declare-fun lit$36$main () Str)
(declare-fun Extensionality.extensionality () Int)
(declare-fun GHC.List.filter () Int)
(declare-fun fromJust () Int)
(declare-fun GHC.List.cycle () Int)
(declare-fun GHC.List.$33$$33$ () Int)
(declare-fun GHC.List.tail () Int)
(declare-fun papp7 () Int)
(declare-fun Liquid.ProofCombinators.impossible () Int)
(declare-fun GHC.Classes.$47$$61$ () Int)
(declare-fun GHC.List.break () Int)
(declare-fun GHC.Types.True () Bool)
(declare-fun GHC.Types.$91$$93$ () Int)
(declare-fun GHC.List.splitAt () Int)
(declare-fun ds_d1Ei () Int)
(declare-fun Liquid.ProofCombinators.withProof () Int)
(declare-fun GHC.Base.$43$$43$ () Int)
(declare-fun GHC.Real.$58$$37$ () Int)
(declare-fun GHC.Tuple.$40$$44$$41$ () Int)
(declare-fun GHC.Classes.$38$$38$ () Int)
(declare-fun lq_tmp$36$x$35$$35$425 () Int)
(declare-fun GHC.Types.GT () Int)
(declare-fun GHC.Classes.C$58$IP () Int)
(declare-fun GHC.Classes.$124$$124$ () Int)
(declare-fun Data.Either.Left () Int)
(declare-fun GHC.List.last () Int)
(declare-fun GHC.Integer.Type.S$35$ () Int)
(declare-fun GHC.List.scanl1 () Int)
(declare-fun Data.Either.Right () Int)
(declare-fun GHC.Num.$45$ () Int)
(declare-fun len () Int)
(declare-fun papp6 () Int)
(declare-fun GHC.Base.. () Int)
(declare-fun x_Tuple22 () Int)
(declare-fun Liquid.ProofCombinators.$61$$61$$61$ () Int)
(declare-fun GHC.Real.$36$W$58$$37$ () Int)
(declare-fun ds_d1Ej () Int)
(declare-fun isJust () Int)
(declare-fun lq_tmp$36$x$35$$35$423 () Int)
(declare-fun GHC.List.takeWhile () Int)
(declare-fun GHC.Types.TrNameD () Int)
(declare-fun lit$36$Extensionality () Str)
(declare-fun x_Tuple31 () Int)
(declare-fun GHC.Integer.Type.Jp$35$ () Int)
(declare-fun GHC.IO.Exception.IOError () Int)
(declare-fun GHC.List.take () Int)
(declare-fun GHC.Stack.Types.PushCallStack () Int)
(declare-fun prop () Int)
(declare-fun GHC.Classes.$60$$61$ () Int)
(declare-fun GHC.Types.TrNameS () Int)
(declare-fun GHC.Enum.C$58$Bounded () Int)
(declare-fun lq_tmp$36$x$35$$35$424 () Int)
(declare-fun GHC.Base.map () Int)
(declare-fun lqdc$35$$35$$36$select$35$$35$GHC.Tuple.$40$$44$$41$$35$$35$2 () Int)
(declare-fun GHC.Base.$36$ () Int)
(declare-fun papp1 () Int)
(declare-fun lq_tmp$36$x$35$$35$429 () Int)
(declare-fun GHC.Classes.max () Int)
(declare-fun lqdc$35$$35$$36$select$35$$35$GHC.Tuple.$40$$44$$44$$41$$35$$35$3 () Int)
(declare-fun GHC.Classes.$60$ () Int)
(declare-fun tail () Int)
(declare-fun Liquid.ProofCombinators.$63$ () Int)
(declare-fun Liquid.ProofCombinators.isAdmit () Int)
(declare-fun GHC.Stack.Types.FreezeCallStack () Int)
(declare-fun GHC.Num.$42$ () Int)
(declare-fun lq_tmp$36$x$35$$35$422 () Int)
(declare-fun GHC.Maybe.Nothing () Int)
(declare-fun ds_d1Ek () Int)
(declare-fun GHC.Types.EQ () Int)
(declare-fun GHC.List.scanr () Int)
(declare-fun GHC.Num.negate () Int)
(declare-fun GHC.Real.fromIntegral () Int)
(declare-fun GHC.Maybe.Just () Int)
(declare-fun GHC.Classes.min () Int)
(declare-fun lq_tmp$36$x$35$$35$427 () Int)
(declare-fun GHC.List.head () Int)
(declare-fun lqdc$35$$35$$36$select$35$$35$GHC.Tuple.$40$$44$$41$$35$$35$1 () Int)
(declare-fun x_Tuple32 () Int)
(declare-fun GHC.List.repeat () Int)
(declare-fun lqdc$35$$35$$36$select$35$$35$GHC.Types.$58$$35$$35$2 () Int)
(declare-fun Liquid.ProofCombinators.$61$$62$$61$ () Int)
(declare-fun GHC.Classes.not () Int)
(declare-fun GHC.Num.$43$ () Int)
(declare-fun Data.Tuple.fst () Int)
(declare-fun lq_tmp$36$x$35$$35$428 () Int)
(declare-fun GHC.Real.C$58$Integral () Int)
(declare-fun GHC.Err.error () Int)
(declare-fun snd () Int)
(declare-fun fst () Int)
(declare-fun lqdc$35$$35$$36$select$35$$35$GHC.Tuple.$40$$44$$44$$41$$35$$35$2 () Int)
(declare-fun Data.Tuple.snd () Int)
(declare-fun apply$35$$35$21 (Int Liquid.ProofCombinators.QED) Bool)
(declare-fun apply$35$$35$16 (Int (_ BitVec 32)) Bool)
(declare-fun apply$35$$35$19 (Int (_ BitVec 32)) Liquid.ProofCombinators.QED)
(declare-fun apply$35$$35$14 (Int Str) Liquid.ProofCombinators.QED)
(declare-fun apply$35$$35$11 (Int Str) Bool)
(declare-fun apply$35$$35$7 (Int Bool) Str)
(declare-fun apply$35$$35$13 (Int Str) (_ BitVec 32))
(declare-fun apply$35$$35$20 (Int Liquid.ProofCombinators.QED) Int)
(declare-fun apply$35$$35$18 (Int (_ BitVec 32)) (_ BitVec 32))
(declare-fun apply$35$$35$24 (Int Liquid.ProofCombinators.QED) Liquid.ProofCombinators.QED)
(declare-fun apply$35$$35$0 (Int Int) Int)
(declare-fun apply$35$$35$23 (Int Liquid.ProofCombinators.QED) (_ BitVec 32))
(declare-fun apply$35$$35$10 (Int Str) Int)
(declare-fun apply$35$$35$22 (Int Liquid.ProofCombinators.QED) Str)
(declare-fun apply$35$$35$1 (Int Int) Bool)
(declare-fun apply$35$$35$9 (Int Bool) Liquid.ProofCombinators.QED)
(declare-fun apply$35$$35$8 (Int Bool) (_ BitVec 32))
(declare-fun apply$35$$35$4 (Int Int) Liquid.ProofCombinators.QED)
(declare-fun apply$35$$35$17 (Int (_ BitVec 32)) Str)
(declare-fun apply$35$$35$12 (Int Str) Str)
(declare-fun apply$35$$35$6 (Int Bool) Bool)
(declare-fun apply$35$$35$2 (Int Int) Str)
(declare-fun apply$35$$35$15 (Int (_ BitVec 32)) Int)
(declare-fun apply$35$$35$3 (Int Int) (_ BitVec 32))
(declare-fun apply$35$$35$5 (Int Bool) Int)
(declare-fun coerce$35$$35$21 (Liquid.ProofCombinators.QED) Bool)
(declare-fun coerce$35$$35$16 ((_ BitVec 32)) Bool)
(declare-fun coerce$35$$35$19 ((_ BitVec 32)) Liquid.ProofCombinators.QED)
(declare-fun coerce$35$$35$14 (Str) Liquid.ProofCombinators.QED)
(declare-fun coerce$35$$35$11 (Str) Bool)
(declare-fun coerce$35$$35$7 (Bool) Str)
(declare-fun coerce$35$$35$13 (Str) (_ BitVec 32))
(declare-fun coerce$35$$35$20 (Liquid.ProofCombinators.QED) Int)
(declare-fun coerce$35$$35$18 ((_ BitVec 32)) (_ BitVec 32))
(declare-fun coerce$35$$35$24 (Liquid.ProofCombinators.QED) Liquid.ProofCombinators.QED)
(declare-fun coerce$35$$35$0 (Int) Int)
(declare-fun coerce$35$$35$23 (Liquid.ProofCombinators.QED) (_ BitVec 32))
(declare-fun coerce$35$$35$10 (Str) Int)
(declare-fun coerce$35$$35$22 (Liquid.ProofCombinators.QED) Str)
(declare-fun coerce$35$$35$1 (Int) Bool)
(declare-fun coerce$35$$35$9 (Bool) Liquid.ProofCombinators.QED)
(declare-fun coerce$35$$35$8 (Bool) (_ BitVec 32))
(declare-fun coerce$35$$35$4 (Int) Liquid.ProofCombinators.QED)
(declare-fun coerce$35$$35$17 ((_ BitVec 32)) Str)
(declare-fun coerce$35$$35$12 (Str) Str)
(declare-fun coerce$35$$35$6 (Bool) Bool)
(declare-fun coerce$35$$35$2 (Int) Str)
(declare-fun coerce$35$$35$15 ((_ BitVec 32)) Int)
(declare-fun coerce$35$$35$3 (Int) (_ BitVec 32))
(declare-fun coerce$35$$35$5 (Bool) Int)
(declare-fun smt_lambda$35$$35$21 (Liquid.ProofCombinators.QED Bool) Int)
(declare-fun smt_lambda$35$$35$16 ((_ BitVec 32) Bool) Int)
(declare-fun smt_lambda$35$$35$19 ((_ BitVec 32) Liquid.ProofCombinators.QED) Int)
(declare-fun smt_lambda$35$$35$14 (Str Liquid.ProofCombinators.QED) Int)
(declare-fun smt_lambda$35$$35$11 (Str Bool) Int)
(declare-fun smt_lambda$35$$35$7 (Bool Str) Int)
(declare-fun smt_lambda$35$$35$13 (Str (_ BitVec 32)) Int)
(declare-fun smt_lambda$35$$35$20 (Liquid.ProofCombinators.QED Int) Int)
(declare-fun smt_lambda$35$$35$18 ((_ BitVec 32) (_ BitVec 32)) Int)
(declare-fun smt_lambda$35$$35$24 (Liquid.ProofCombinators.QED Liquid.ProofCombinators.QED) Int)
(declare-fun smt_lambda$35$$35$0 (Int Int) Int)
(declare-fun smt_lambda$35$$35$23 (Liquid.ProofCombinators.QED (_ BitVec 32)) Int)
(declare-fun smt_lambda$35$$35$10 (Str Int) Int)
(declare-fun smt_lambda$35$$35$22 (Liquid.ProofCombinators.QED Str) Int)
(declare-fun smt_lambda$35$$35$1 (Int Bool) Int)
(declare-fun smt_lambda$35$$35$9 (Bool Liquid.ProofCombinators.QED) Int)
(declare-fun smt_lambda$35$$35$8 (Bool (_ BitVec 32)) Int)
(declare-fun smt_lambda$35$$35$4 (Int Liquid.ProofCombinators.QED) Int)
(declare-fun smt_lambda$35$$35$17 ((_ BitVec 32) Str) Int)
(declare-fun smt_lambda$35$$35$12 (Str Str) Int)
(declare-fun smt_lambda$35$$35$6 (Bool Bool) Int)
(declare-fun smt_lambda$35$$35$2 (Int Str) Int)
(declare-fun smt_lambda$35$$35$15 ((_ BitVec 32) Int) Int)
(declare-fun smt_lambda$35$$35$3 (Int (_ BitVec 32)) Int)
(declare-fun smt_lambda$35$$35$5 (Bool Int) Int)
(declare-fun lam_arg$35$$35$1$35$$35$20 () Liquid.ProofCombinators.QED)
(declare-fun lam_arg$35$$35$2$35$$35$20 () Liquid.ProofCombinators.QED)
(declare-fun lam_arg$35$$35$3$35$$35$20 () Liquid.ProofCombinators.QED)
(declare-fun lam_arg$35$$35$4$35$$35$20 () Liquid.ProofCombinators.QED)
(declare-fun lam_arg$35$$35$5$35$$35$20 () Liquid.ProofCombinators.QED)
(declare-fun lam_arg$35$$35$6$35$$35$20 () Liquid.ProofCombinators.QED)
(declare-fun lam_arg$35$$35$7$35$$35$20 () Liquid.ProofCombinators.QED)
(declare-fun lam_arg$35$$35$1$35$$35$0 () Int)
(declare-fun lam_arg$35$$35$2$35$$35$0 () Int)
(declare-fun lam_arg$35$$35$3$35$$35$0 () Int)
(declare-fun lam_arg$35$$35$4$35$$35$0 () Int)
(declare-fun lam_arg$35$$35$5$35$$35$0 () Int)
(declare-fun lam_arg$35$$35$6$35$$35$0 () Int)
(declare-fun lam_arg$35$$35$7$35$$35$0 () Int)
(declare-fun lam_arg$35$$35$1$35$$35$10 () Str)
(declare-fun lam_arg$35$$35$2$35$$35$10 () Str)
(declare-fun lam_arg$35$$35$3$35$$35$10 () Str)
(declare-fun lam_arg$35$$35$4$35$$35$10 () Str)
(declare-fun lam_arg$35$$35$5$35$$35$10 () Str)
(declare-fun lam_arg$35$$35$6$35$$35$10 () Str)
(declare-fun lam_arg$35$$35$7$35$$35$10 () Str)
(declare-fun lam_arg$35$$35$1$35$$35$15 () (_ BitVec 32))
(declare-fun lam_arg$35$$35$2$35$$35$15 () (_ BitVec 32))
(declare-fun lam_arg$35$$35$3$35$$35$15 () (_ BitVec 32))
(declare-fun lam_arg$35$$35$4$35$$35$15 () (_ BitVec 32))
(declare-fun lam_arg$35$$35$5$35$$35$15 () (_ BitVec 32))
(declare-fun lam_arg$35$$35$6$35$$35$15 () (_ BitVec 32))
(declare-fun lam_arg$35$$35$7$35$$35$15 () (_ BitVec 32))
(declare-fun lam_arg$35$$35$1$35$$35$5 () Bool)
(declare-fun lam_arg$35$$35$2$35$$35$5 () Bool)
(declare-fun lam_arg$35$$35$3$35$$35$5 () Bool)
(declare-fun lam_arg$35$$35$4$35$$35$5 () Bool)
(declare-fun lam_arg$35$$35$5$35$$35$5 () Bool)
(declare-fun lam_arg$35$$35$6$35$$35$5 () Bool)
(declare-fun lam_arg$35$$35$7$35$$35$5 () Bool)

(assert (distinct Liquid.ProofCombinators.QED Liquid.ProofCombinators.Admit))
(assert (distinct lit$36$Extensionality lit$36$main))

(assert (distinct GHC.Types.True GHC.Types.False))
(assert (distinct GHC.Types.EQ GHC.Types.GT GHC.Types.LT))
(assert (= (strLen lit$36$main) 4))
(assert (= (strLen lit$36$Extensionality) 14))
(push 1)
